26316 25626 100 99 98 97 96 95 92 91 90 88 87 86 85 84 82 81 79 77 76 75 73 72 70 68 67 66 65 64 62 61 60 59 58 56 55 54 52 51 50 49 47 45 43 41 38 36 31 30 29 28 27 26 24 23 22 21 18 17 16 15 14 13 10 9 6 5 4 3 2 